Minimize
  - 42 y_0 - 38 y_1 - 15 y_2 - 11 y_3 - 35 y_4 - 36 y_5 - 28 y_6 - 56 y_7
   - 50 y_8 - 62 y_9 - 48 y_10 - 7 y_11 - 14 y_12 - 36 y_13 - 21 y_14
   - 33 y_15 - 21 y_16 - 61 y_17 - 18 y_18 - 26 y_19 - 34 y_20 - 20 y_21
   - 53 y_22 - 31 y_23 - 42 y_24 - 23 y_25 - 44 y_26 - 34 y_27 - 39 y_28
   - 54 y_29 - 33 y_30 - 36 y_31 - 61 y_32 - 7 y_33 - 37 y_34 - 52 y_35
   - 13 y_36 - 43 y_37 - 22 y_38 - 39 y_39 - 57 y_40 - 8 y_41 - 38 y_42
   - 38 y_43 - 47 y_44 - 31 y_45 - 37 y_46 - 14 y_47 - 31 y_48 - 36 y_49
   - 51 y_50 - 46 y_51 - 50 y_52 - 11 y_53 - 21 y_54 - 3 y_55 - 29 y_56
   - 10 y_57 - 26 y_58 - 49 y_59 - 28 y_60 - 19 y_61 - 57 y_62 - 8 y_63
   - 47 y_64 - 19 y_65 - 5 y_66 - 36 y_67 - 48 y_68 - 39 y_69 - 52 y_70
   - 30 y_71 - 22 y_72 - 27 y_73 - 36 y_74 - 38 y_75 - 55 y_76 - 46 y_77
   - 24 y_78 - 51 y_79 - 19 y_80 - 14 y_81 - 38 y_82 - 55 y_83 - 55 y_84
   - 29 y_85 - 29 y_86 - 44 y_87 - 47 y_88 - 31 y_89 - 20 y_90 - 27 y_91
   - 36 y_92 - 59 y_94 - 6 y_95 - 24 y_96 - 15 y_97 - 11 y_98 - 53 y_99
   + 3307 Constant
Subject To
 c_0: y_19 = 1
 c_1_0: y_0 + y_67 + y_69 + y_74 + y_92 >= 1
 c_1_1: y_1 + y_27 + y_28 + y_30 + y_39 >= 1
 c_1_2: y_2 + y_3 + y_14 + y_18 + y_36 + y_41 + y_57 + y_63 + y_72 >= 1
 c_1_3: y_2 + y_3 + y_11 + y_21 + y_36 + y_41 + y_55 + y_57 + y_63 + y_66
   + y_95 + y_98 >= 1
 c_1_4: y_4 + y_5 + y_13 + y_15 + y_20 + y_23 + y_31 + y_34 + y_37 + y_42
   + y_43 + y_45 + y_46 + y_48 + y_58 + y_71 + y_75 + y_82 + y_89 >= 1
 c_1_5: y_4 + y_5 + y_13 + y_15 + y_20 + y_27 + y_28 + y_34 + y_37 + y_42
   + y_43 + y_45 + y_58 + y_71 + y_75 + y_87 + y_89 >= 1
 c_1_6: y_6 + y_14 + y_19 + y_21 + y_25 + y_56 + y_60 + y_67 + y_72 + y_73
   + y_85 + y_86 + y_91 >= 1
 c_1_7: y_7 + y_9 + y_17 + y_32 + y_50 + y_62 + y_79 + y_84 + y_94 + y_99
   >= 1
 c_1_8: y_8 + y_22 + y_29 + y_35 + y_40 + y_50 + y_52 + y_70 + y_76 + y_83
   + y_84 >= 1
 c_1_9: y_7 + y_9 + y_17 + y_32 + y_62 + y_94 + y_99 >= 1
 c_1_10: y_10 + y_42 + y_43 + y_44 + y_51 + y_59 + y_64 + y_77 + y_87
   + y_88 >= 1
 c_1_11: y_3 + y_11 + y_12 + y_33 + y_36 + y_41 + y_47 + y_53 + y_55 + y_57
   + y_63 + y_66 + y_81 + y_93 + y_95 + y_97 + y_98 >= 1
 c_1_12: y_11 + y_12 + y_16 + y_33 + y_47 + y_53 + y_61 + y_78 + y_80
   + y_81 + y_90 + y_95 + y_97 + y_98 >= 1
 c_1_13: y_4 + y_5 + y_13 + y_15 + y_20 + y_23 + y_34 + y_37 + y_42 + y_43
   + y_45 + y_48 + y_58 + y_71 + y_75 + y_89 >= 1
 c_1_14: y_2 + y_6 + y_14 + y_18 + y_19 + y_21 + y_25 + y_56 + y_60 + y_72
   + y_73 + y_86 + y_91 >= 1
 c_1_15: y_4 + y_5 + y_13 + y_15 + y_20 + y_23 + y_31 + y_34 + y_45 + y_46
   + y_48 + y_58 + y_71 + y_75 + y_82 + y_89 + y_96 >= 1
 c_1_16: y_12 + y_16 + y_38 + y_45 + y_47 + y_54 + y_58 + y_61 + y_65
   + y_71 + y_78 + y_80 + y_81 + y_90 + y_96 + y_97 + y_98 >= 1
 c_1_17: y_7 + y_9 + y_17 + y_32 + y_62 + y_79 + y_84 + y_94 + y_99 >= 1
 c_1_18: y_2 + y_14 + y_18 + y_72 + y_73 + y_91 >= 1
 c_1_19: y_6 + y_14 + y_19 + y_21 + y_25 + y_56 + y_60 + y_72 + y_73 + y_85
   + y_91 >= 1
 c_1_20: y_4 + y_5 + y_13 + y_15 + y_20 + y_23 + y_34 + y_37 + y_42 + y_43
   + y_45 + y_48 + y_58 + y_71 + y_75 + y_89 >= 1
 c_1_21: y_3 + y_6 + y_14 + y_19 + y_21 + y_25 + y_36 + y_38 + y_54 + y_65
   + y_85 + y_96 >= 1
 c_1_22: y_8 + y_22 + y_29 + y_35 + y_40 + y_50 + y_52 + y_70 + y_76 + y_83
   + y_84 >= 1
 c_1_23: y_4 + y_13 + y_15 + y_20 + y_23 + y_31 + y_34 + y_38 + y_45 + y_46
   + y_48 + y_71 + y_75 + y_82 + y_89 + y_96 >= 1
 c_1_24: y_24 + y_31 + y_46 + y_75 + y_79 + y_82 >= 1
 c_1_25: y_6 + y_14 + y_19 + y_21 + y_25 + y_56 + y_60 + y_85 >= 1
 c_1_26: y_26 + y_68 + y_69 >= 1
 c_1_27: y_1 + y_5 + y_27 + y_28 + y_30 + y_39 + y_42 + y_43 + y_87 >= 1
 c_1_28: y_1 + y_5 + y_27 + y_28 + y_30 + y_39 + y_42 + y_43 + y_51 + y_87
   + y_88 >= 1
 c_1_29: y_8 + y_22 + y_29 + y_35 + y_40 + y_50 + y_52 + y_62 + y_70 + y_76
   + y_83 + y_84 >= 1
 c_1_30: y_1 + y_27 + y_28 + y_30 + y_39 + y_43 + y_78 >= 1
 c_1_31: y_4 + y_15 + y_23 + y_24 + y_31 + y_34 + y_46 + y_48 + y_49 + y_75
   + y_82 + y_89 >= 1
 c_1_32: y_7 + y_9 + y_17 + y_32 + y_62 + y_84 + y_94 + y_99 >= 1
 c_1_33: y_11 + y_12 + y_33 + y_41 + y_47 + y_53 + y_55 + y_63 + y_66
   + y_81 + y_93 + y_95 + y_97 + y_98 >= 1
 c_1_34: y_4 + y_5 + y_13 + y_15 + y_20 + y_23 + y_31 + y_34 + y_37 + y_42
   + y_43 + y_45 + y_46 + y_48 + y_71 + y_75 + y_82 + y_89 >= 1
 c_1_35: y_8 + y_22 + y_29 + y_35 + y_40 + y_50 + y_52 + y_62 + y_70 + y_76
   + y_83 + y_84 >= 1
 c_1_36: y_2 + y_3 + y_11 + y_21 + y_36 + y_41 + y_54 + y_55 + y_57 + y_63
   + y_65 + y_66 + y_95 + y_98 >= 1
 c_1_37: y_4 + y_5 + y_13 + y_20 + y_34 + y_37 + y_42 + y_43 + y_44 + y_64
   + y_75 + y_77 >= 1
 c_1_38: y_16 + y_21 + y_23 + y_38 + y_45 + y_48 + y_54 + y_58 + y_61
   + y_65 + y_71 + y_80 + y_89 + y_96 >= 1
 c_1_39: y_1 + y_27 + y_28 + y_30 + y_39 >= 1
 c_1_40: y_8 + y_22 + y_29 + y_35 + y_40 + y_50 + y_52 + y_62 + y_70 + y_76
   + y_83 + y_84 >= 1
 c_1_41: y_2 + y_3 + y_11 + y_33 + y_36 + y_41 + y_55 + y_57 + y_63 + y_66
   + y_93 + y_95 + y_98 >= 1
 c_1_42: y_4 + y_5 + y_10 + y_13 + y_20 + y_27 + y_28 + y_34 + y_37 + y_42
   + y_43 + y_44 + y_45 + y_51 + y_64 + y_75 + y_77 + y_87 + y_88 >= 1
 c_1_43: y_4 + y_5 + y_10 + y_13 + y_20 + y_27 + y_28 + y_30 + y_34 + y_37
   + y_42 + y_43 + y_45 + y_51 + y_64 + y_77 + y_87 + y_88 >= 1
 c_1_44: y_10 + y_37 + y_42 + y_44 + y_51 + y_59 + y_64 + y_77 + y_87
   + y_88 >= 1
 c_1_45: y_4 + y_5 + y_13 + y_15 + y_16 + y_20 + y_23 + y_34 + y_38 + y_42
   + y_43 + y_45 + y_48 + y_54 + y_58 + y_71 + y_75 + y_89 + y_96 >= 1
 c_1_46: y_4 + y_15 + y_23 + y_24 + y_31 + y_34 + y_46 + y_48 + y_49 + y_75
   + y_82 + y_89 >= 1
 c_1_47: y_11 + y_12 + y_16 + y_33 + y_47 + y_53 + y_54 + y_61 + y_63
   + y_65 + y_78 + y_80 + y_81 + y_90 + y_95 + y_97 + y_98 >= 1
 c_1_48: y_4 + y_13 + y_15 + y_20 + y_23 + y_31 + y_34 + y_38 + y_45 + y_46
   + y_48 + y_58 + y_71 + y_75 + y_82 + y_89 + y_96 >= 1
 c_1_49: y_31 + y_46 + y_49 + y_82 + y_85 >= 1
 c_1_50: y_7 + y_8 + y_22 + y_29 + y_35 + y_40 + y_50 + y_52 + y_62 + y_70
   + y_76 + y_79 + y_83 + y_84 + y_94 + y_99 >= 1
 c_1_51: y_10 + y_28 + y_42 + y_43 + y_44 + y_51 + y_59 + y_64 + y_77
   + y_87 + y_88 >= 1
 c_1_52: y_8 + y_22 + y_29 + y_35 + y_40 + y_50 + y_52 + y_68 + y_70 + y_76
   + y_83 >= 1
 c_1_53: y_11 + y_12 + y_33 + y_47 + y_53 + y_55 + y_61 + y_63 + y_80
   + y_81 + y_90 + y_95 + y_97 + y_98 >= 1
 c_1_54: y_16 + y_21 + y_36 + y_38 + y_45 + y_47 + y_54 + y_58 + y_61
   + y_65 + y_71 + y_80 + y_89 + y_96 + y_97 >= 1
 c_1_55: y_3 + y_11 + y_33 + y_36 + y_41 + y_53 + y_55 + y_57 + y_63 + y_66
   + y_93 + y_95 + y_98 >= 1
 c_1_56: y_6 + y_14 + y_19 + y_25 + y_56 + y_60 + y_67 + y_69 + y_73 + y_74
   + y_85 + y_86 + y_91 >= 1
 c_1_57: y_2 + y_3 + y_11 + y_36 + y_41 + y_55 + y_57 + y_63 + y_66 + y_95
   + y_98 >= 1
 c_1_58: y_4 + y_5 + y_13 + y_15 + y_16 + y_20 + y_38 + y_45 + y_48 + y_54
   + y_58 + y_61 + y_65 + y_71 + y_78 + y_80 + y_89 + y_96 >= 1
 c_1_59: y_10 + y_44 + y_51 + y_59 + y_64 + y_77 + y_87 + y_88 >= 1
 c_1_60: y_6 + y_14 + y_19 + y_25 + y_56 + y_60 + y_67 + y_72 + y_73 + y_74
   + y_85 + y_86 + y_91 + y_92 >= 1
 c_1_61: y_12 + y_16 + y_38 + y_47 + y_53 + y_54 + y_58 + y_61 + y_65
   + y_78 + y_80 + y_81 + y_90 + y_96 + y_97 + y_98 >= 1
 c_1_62: y_7 + y_9 + y_17 + y_29 + y_32 + y_35 + y_40 + y_50 + y_62 + y_79
   + y_83 + y_84 + y_94 + y_99 >= 1
 c_1_63: y_2 + y_3 + y_11 + y_33 + y_36 + y_41 + y_47 + y_53 + y_55 + y_57
   + y_63 + y_66 + y_93 + y_95 + y_98 >= 1
 c_1_64: y_10 + y_37 + y_42 + y_43 + y_44 + y_51 + y_59 + y_64 + y_77
   + y_87 + y_88 >= 1
 c_1_65: y_16 + y_21 + y_36 + y_38 + y_47 + y_54 + y_58 + y_61 + y_65
   + y_80 + y_96 + y_97 + y_98 >= 1
 c_1_66: y_3 + y_11 + y_33 + y_36 + y_41 + y_55 + y_57 + y_63 + y_66 + y_93
   + y_95 >= 1
 c_1_67: y_0 + y_6 + y_56 + y_60 + y_67 + y_69 + y_73 + y_74 + y_86 + y_91
   + y_92 >= 1
 c_1_68: y_26 + y_52 + y_68 + y_70 >= 1
 c_1_69: y_0 + y_26 + y_56 + y_67 + y_69 + y_74 + y_92 >= 1
 c_1_70: y_8 + y_22 + y_29 + y_35 + y_40 + y_50 + y_52 + y_68 + y_70 + y_76
   + y_83 >= 1
 c_1_71: y_4 + y_5 + y_13 + y_15 + y_16 + y_20 + y_23 + y_34 + y_38 + y_45
   + y_48 + y_54 + y_58 + y_71 + y_75 + y_89 + y_96 >= 1
 c_1_72: y_2 + y_6 + y_14 + y_18 + y_19 + y_60 + y_72 + y_73 + y_86 + y_91
   >= 1
 c_1_73: y_6 + y_14 + y_18 + y_19 + y_56 + y_60 + y_67 + y_72 + y_73 + y_74
   + y_86 + y_91 + y_92 >= 1
 c_1_74: y_0 + y_56 + y_60 + y_67 + y_69 + y_73 + y_74 + y_86 + y_91 + y_92
   >= 1
 c_1_75: y_4 + y_5 + y_13 + y_15 + y_20 + y_23 + y_24 + y_31 + y_34 + y_37
   + y_42 + y_45 + y_46 + y_48 + y_71 + y_75 + y_82 + y_89 >= 1
 c_1_76: y_8 + y_22 + y_29 + y_35 + y_40 + y_50 + y_52 + y_70 + y_76 + y_83
   + y_84 >= 1
 c_1_77: y_10 + y_37 + y_42 + y_43 + y_44 + y_51 + y_59 + y_64 + y_77
   + y_87 + y_88 >= 1
 c_1_78: y_12 + y_16 + y_30 + y_47 + y_58 + y_61 + y_78 + y_80 + y_90
   + y_97 >= 1
 c_1_79: y_7 + y_17 + y_24 + y_50 + y_62 + y_79 + y_84 + y_94 + y_99 >= 1
 c_1_80: y_12 + y_16 + y_38 + y_47 + y_53 + y_54 + y_58 + y_61 + y_65
   + y_78 + y_80 + y_81 + y_90 + y_97 + y_98 >= 1
 c_1_81: y_11 + y_12 + y_16 + y_33 + y_47 + y_53 + y_61 + y_80 + y_81
   + y_90 + y_95 + y_97 + y_98 >= 1
 c_1_82: y_4 + y_15 + y_23 + y_24 + y_31 + y_34 + y_46 + y_48 + y_49 + y_75
   + y_82 + y_89 >= 1
 c_1_83: y_8 + y_22 + y_29 + y_35 + y_40 + y_50 + y_52 + y_62 + y_70 + y_76
   + y_83 + y_84 + y_94 >= 1
 c_1_84: y_7 + y_8 + y_17 + y_22 + y_29 + y_32 + y_35 + y_40 + y_50 + y_62
   + y_76 + y_79 + y_83 + y_84 + y_94 + y_99 >= 1
 c_1_85: y_6 + y_19 + y_21 + y_25 + y_49 + y_56 + y_60 + y_85 + y_91 >= 1
 c_1_86: y_6 + y_14 + y_56 + y_60 + y_67 + y_72 + y_73 + y_74 + y_86 + y_91
   + y_92 >= 1
 c_1_87: y_5 + y_10 + y_27 + y_28 + y_42 + y_43 + y_44 + y_51 + y_59 + y_64
   + y_77 + y_87 + y_88 >= 1
 c_1_88: y_10 + y_28 + y_42 + y_43 + y_44 + y_51 + y_59 + y_64 + y_77
   + y_87 + y_88 >= 1
 c_1_89: y_4 + y_5 + y_13 + y_15 + y_20 + y_23 + y_31 + y_34 + y_38 + y_45
   + y_46 + y_48 + y_54 + y_58 + y_71 + y_75 + y_82 + y_89 + y_96 >= 1
 c_1_90: y_12 + y_16 + y_47 + y_53 + y_61 + y_78 + y_80 + y_81 + y_90
   + y_97 + y_98 >= 1
 c_1_91: y_6 + y_14 + y_18 + y_19 + y_56 + y_60 + y_67 + y_72 + y_73 + y_74
   + y_85 + y_86 + y_91 + y_92 >= 1
 c_1_92: y_0 + y_60 + y_67 + y_69 + y_73 + y_74 + y_86 + y_91 + y_92 >= 1
 c_1_93: y_11 + y_33 + y_41 + y_55 + y_63 + y_66 + y_93 + y_95 >= 1
 c_1_94: y_7 + y_9 + y_17 + y_32 + y_50 + y_62 + y_79 + y_83 + y_84 + y_94
   + y_99 >= 1
 c_1_95: y_3 + y_11 + y_12 + y_33 + y_36 + y_41 + y_47 + y_53 + y_55 + y_57
   + y_63 + y_66 + y_81 + y_93 + y_95 + y_97 + y_98 >= 1
 c_1_96: y_15 + y_16 + y_21 + y_23 + y_38 + y_45 + y_48 + y_54 + y_58
   + y_61 + y_65 + y_71 + y_89 + y_96 >= 1
 c_1_97: y_11 + y_12 + y_16 + y_33 + y_47 + y_53 + y_54 + y_61 + y_65
   + y_78 + y_80 + y_81 + y_90 + y_95 + y_97 + y_98 >= 1
 c_1_98: y_3 + y_11 + y_12 + y_16 + y_33 + y_36 + y_41 + y_47 + y_53 + y_55
   + y_57 + y_61 + y_63 + y_65 + y_80 + y_81 + y_90 + y_95 + y_97 + y_98
   >= 1
 c_1_99: y_7 + y_9 + y_17 + y_32 + y_50 + y_62 + y_79 + y_84 + y_94 + y_99
   >= 1
Bounds
 Constant = 1
Binaries
 y_0 y_1 y_2 y_3 y_4 y_5 y_6 y_7 y_8 y_9 y_10 y_11 y_12 y_13 y_14 y_15 y_16
 y_17 y_18 y_19 y_20 y_21 y_22 y_23 y_24 y_25 y_26 y_27 y_28 y_29 y_30 y_31
 y_32 y_33 y_34 y_35 y_36 y_37 y_38 y_39 y_40 y_41 y_42 y_43 y_44 y_45 y_46
 y_47 y_48 y_49 y_50 y_51 y_52 y_53 y_54 y_55 y_56 y_57 y_58 y_59 y_60 y_61
 y_62 y_63 y_64 y_65 y_66 y_67 y_68 y_69 y_70 y_71 y_72 y_73 y_74 y_75 y_76
 y_77 y_78 y_79 y_80 y_81 y_82 y_83 y_84 y_85 y_86 y_87 y_88 y_89 y_90 y_91
 y_92 y_93 y_94 y_95 y_96 y_97 y_98 y_99
End
